TYPE : Vertex Cover
DIMENSION: 34
EDGE_DATA_SECTION:
0 1
0 4
0 12
0 16
0 22
0 27
0 28
1 5
1 9
1 25
2 7
2 9
2 10
2 22
2 27
3 4
3 10
3 13
3 15
3 16
3 17
3 24
3 26
3 31
3 32
3 33
4 11
4 24
4 29
4 31
4 33
5 7
5 12
5 14
5 15
5 17
5 25
5 26
5 27
5 28
6 10
6 18
6 20
6 24
6 25
6 26
6 32
7 13
7 17
7 19
7 21
7 23
8 22
8 23
8 32
8 33
9 21
9 28
10 11
10 13
10 18
11 15
11 16
12 24
13 15
13 19
13 21
13 24
13 25
13 26
14 21
14 29
14 32
15 23
15 28
15 29
15 30
15 32
16 20
17 19
17 23
17 24
18 20
18 22
18 25
18 33
19 20
19 22
19 23
19 28
19 30
20 24
21 25
21 27
21 30
22 23
22 32
23 27
24 25
25 26
26 27
26 31
29 33
-1
VERTEX_DEGREE:
7.0 4.0 5.0 11.0 7.0 10.0 7.0 7.0 4.0 4.0 6.0 4.0 3.0 9.0 4.0 9.0 4.0 6.0 6.0 8.0 5.0 7.0 7.0 7.0 8.0 8.0 7.0 6.0 5.0 4.0 3.0 3.0 6.0 5.0
VERTEX_COVER:
0 2 3 4 5 6 7 8 9 10 15 16 18 19 21 23 24 25 26 29 32
EOF
